33 33
23
3 3 10 0
3 4 30 29
3 5 30 0
3 6 0 0
3 7 20 0
3 8 3 0
3 9 20 24
3 10 3 8
3 13 0 6
3 14 0 19
3 15 3 18
3 17 20 7
3 24 30 5
3 30 6 3
3 33 27 0
4 3 6 0
4 4 23 0
4 6 9 3
4 10 9 23
4 12 23 21
4 14 9 9
4 17 23 4
7 33 13 0
